M+/Instances/S1-15-M+/S1-15-15-1-l-M+.txt
     100      15    0.15
       1       3       3       2       2       1       1       3       1       3       1       2       3       1       2       1      13      14       6       3       2       7       1       9       6       0       6       3       0       0       7
       1       1       3       2       3       1       2       2       3       2       3       1       2       1       1       1       6      10       6      13       0      13      16      14       9      12      16      12       8       1       8
       2       1       1       3       3       2       2       2       2       3       1       2       1       2       1      16       1       0      10       1      12       9       8       0      15       6      16      11       7       1      10
       1       1       2       1       1       3       3       1       1       2       1       3       1       3       2       0      16      14      14       2       3      12       3      16      15      14      11       2       7      15       8
       3       3       1       2       2       2       1       3       2       3       3       3       2       2       1      13       3      13       8       0       0      12       8      12       0       6       5      14       2      16      10
       2       2       1       1       3       1       3       3       3       3       2       2       3       2       3      12      13       8      15      10       3      15       9       8      14       5      10       8      13       5       9
       1       1       2       1       2       1       3       2       3       2       1       2       3       2       3       3      16       5       5      10       6       4       8      10      11       9      16      13       1       3      10
       2       3       1       2       3       1       1       2       2       1       1       1       3       3       3      11      13       0      14       0       6      16       8      12      11       9      12       6      12      14       7
       2       3       1       2       1       2       2       1       2       3       2       3       3       3       1      11       6       8      10       6       4       1       1       8       2       4       1       0       3       9       8
       3       3       3       3       3       3       3       1       2       3       1       1       3       1       1       5      11       5      14      13       0      10      10       1      12       1       0       0       2       1       9
       2       3       1       3       2       2       1       3       1       3       1       1       3       2       1       6       0      16      10      12       0       8       4      12      13      10      14      15       5      15      11
       1       3       3       3       2       2       2       1       1       1       2       3       3       2       3       7       7       5       5       3      11       7       3       0      13       1       7       4      11      15       6
       1       2       1       3       2       1       3       3       2       2       2       1       3       2       1       5      16       6       4      15       6       9       9       1       7      10       6       1      14      12       7
       1       3       3       1       3       2       1       1       3       2       1       3       1       2       2       3       0       3       2      13       5       8       4       0      10      11       9       3      10      12       7
       1       1       3       1       1       2       3       1       2       1       2       3       2       2       1      16      14       4      11       9      11       7      11       2       0       1      11      13       9      14       9
       1       2       1       1       2       3       1       1       1       1       1       3       2       1       3      13      15       7       9       9       7       5       8      10       4      16       2      14       3       8       8
       3       3       3       2       2       1       3       2       3       2       2       3       2       2       2      15       4       0      14       2      10       9       0       2       5      13       5      13       0       7      10
       3       3       3       2       1       1       1       1       3       3       3       2       3       2       2       9      14       9       1       3       3       8      12       7       4       3       3      12       7       0      11
       1       2       1       1       2       2       3       1       1       1       3       3       1       1       1       0      11       0      10       9      10       4       5       5       0       3       4      12      15      13       7
       3       2       3       3       1       2       1       3       1       3       1       1       1       2       3      11       6       4       3      15      10      13       3      16       9      13      11      13      13       5       9
       3       3       3       2       3       1       3       2       3       2       2       3       2       2       2       3      13       2       8      12       2      11       5      12       8       2      14      13      16       0       6
       3       2       2       2       3       2       2       3       1       2       3       2       1       3       3       7       1      11       5      13      11       2       7       2       7       1       5       6      14      16       6
       1       3       3       1       1       3       1       2       3       3       1       1       3       2       3       5       9       7       7      12       9       1       9       5       6       5      11       7      10       3      10
       3       1       2       1       3       3       1       1       2       3       1       3       1       3       2       4       7       6      14       9      15       9      12       7       6       0      12       4      10       4       6
       1       2       2       1       1       2       1       1       1       3       3       2       3       3       1      12      12       0      15       0       4       0       7      15       5       8       7       3      10       8       8
       2       2       3       1       1       1       1       1       2       3       2       2       1       2       2       0       7       0       4       3       4       8       3       3       1       9       6       9       6       1       8
       2       1       3       2       2       2       2       3       1       1       2       3       2       3       3       6       7       1      16      12       6       1       6       1       4       6      10       3       5       1      10
       1       2       2       1       2       1       2       1       1       2       2       3       3       2       3       7       7      11       2       3       1       1       6       2       3       6      13       2       3      14       7
       1       3       2       2       3       3       2       2       3       1       2       2       2       1       2       0       8       9       6       3       8      12       8       6      11       2       2       3       5       0      11
       2       3       3       1       1       2       3       3       3       1       3       1       1       1       1       4       5      14      15       6       0       5       6       7      14      12      16      14      16      15       7
       3       1       3       3       3       3       3       3       1       3       1       2       1       2       2       1      15       2       0      15      15      15       3       7       9      10      15       3      11      10       6
       1       1       1       3       3       1       2       1       2       1       3       1       3       2       1      12      10       2       9      15      15      14       5       1      16      15       2       4       7       6      11
       3       2       2       1       1       2       1       3       2       1       2       1       1       2       1      10       0       9       3      11       1      13      11      13       4      14      11      10      15       1       6
       1       3       2       2       2       3       1       1       2       2       2       3       1       1       2       7       7       2      14      11      11       3      13       3       0      16      12      15       2       2       8
       1       3       3       2       3       3       2       2       3       3       3       1       3       2       1      11       6       5      11       6       6       8       1      12      16       5      15       8       9       8       7
       1       3       1       3       2       1       3       1       1       3       2       2       1       1       3       1      12       3       3       7       4      16       7      13      14       0       6       3       2       3       6
       3       1       2       1       3       3       2       2       3       2       2       2       3       1       1       7       7      16       8       6       6       5      15       3       9      16       8      16       6       8       6
       2       3       2       1       2       3       1       1       1       2       2       2       2       3       2       0      11       7       6      13      10       3       0       6       5      11      14       0       8       6      11
       2       3       2       3       2       3       1       3       1       3       3       1       3       2       2       8      12      14       7      13       2       7       3      12       7       3      13       2       2      13       7
       1       3       1       1       1       3       1       1       1       2       2       1       3       2       1       5       4      10       5       8      11       3       4       6       6      16      11       9       1      12      11
       1       2       2       1       1       1       3       1       1       3       2       3       2       3       3      11       3       1      12       8       3      14       4      14       7       5       8      11      15      15       7
       3       2       2       2       1       1       1       3       1       3       1       1       2       2       3       2      13       9      14       5      15       7       4       8       6      11       7       8      15       6      11
       2       2       1       1       3       3       3       3       1       2       2       3       2       1       1       5       1      16      15       2       8       1      11      12       4      13       8       8      11       0       6
       3       3       2       2       3       2       1       3       1       1       2       1       1       1       2       2      16       9       2      14       5       1      13       1       2       4       8       5       8      10       7
       2       1       2       1       2       2       2       1       1       1       1       3       1       1       3       0       0      11      14      12      12       7       5      15      16       4       9       4       5       0       6
       3       2       3       2       3       2       2       1       3       1       3       3       3       2       3      11       7       4       1      10      14      15       4      10       7       8       9       7       0      10      10
       2       3       3       2       1       2       2       1       3       1       2       2       3       1       3      11       0      12       4      12      11       8       4       5      13      13       3       1      16       5      10
       3       1       3       3       1       2       2       2       3       2       3       1       1       1       1      10      13      11      15       8       7       5      10      16      15      15      12       9       5       2      10
       3       1       2       3       2       3       1       2       2       2       3       1       2       1       3      15       0       9      13       7       2       9       8       7       0       1       5       1       0      16      10
       1       2       3       3       2       1       2       1       3       3       1       3       3       3       3      12       8       1      10      13       0       0      13       8       9      10       0       3      10       6      11
       3       3       3       2       3       2       1       2       3       1       1       1       2       2       3       5       2      16      13       8       5      16       4       1      16       7      11       3       0      16      10
       2       2       3       3       2       3       1       3       1       3       2       1       1       1       3      14      15       1      10       2       5       7      12       7       2       4       0       8       6       8       7
       3       2       3       1       2       2       3       3       3       1       2       2       1       2       3      13      16      11       5       8       9       2       6      11       8       4       9       5       1      15      11
       1       3       3       3       3       2       3       3       1       3       1       3       3       1       3      11      15       7      13       2      12      12       9      12       9       7      11       6       7       8       8
       3       3       3       3       1       1       3       2       2       1       1       2       1       2       2       0      14      16       7       7       6      12       8      10       7       8      16      10      15       6      10
       3       3       1       1       3       2       1       2       1       2       2       1       3       3       3       5       9       5      15      15       4       6       1       0       3       2       5       9      15       6      10
       3       3       2       2       1       1       3       2       3       1       1       2       2       3       2       9      11       2       5      14       5      16      10       1      14       8       5       0       2       2       9
       2       2       2       3       3       1       2       3       1       2       2       2       2       3       3       4       6      16      14       9       8       1       3       0       8       0       6       4      11       8      11
       3       2       3       3       2       2       3       2       2       1       3       2       3       1       3       1       7      11       9       7       6      11       8       8      10      13      15      15      16      14       7
       3       3       1       2       2       1       1       1       2       1       2       2       2       3       3      10       2       5      15      12      12       2       5       3      16       0       9       6      16      16       8
       2       3       1       1       2       3       3       1       3       3       3       3       3       2       3       4       2       5       7      16      12       8       3       8       6       5       5       6       3       9       6
       1       3       2       2       3       2       3       1       2       1       2       1       1       3       1      12       3       2      11       9       3      11       4       2      13       1       7      10      10       1       8
       2       3       1       1       1       2       2       2       1       1       2       3       1       3       1      11      15      15       3      16      16       9      10       0       4       7      14       1       3      16       7
       3       2       1       3       1       2       3       1       3       2       2       2       3       3       2       9      12       8      13      15       9      15      10      10      14      14       7       0       2      12      10
       2       3       1       2       3       2       1       1       2       2       1       1       2       3       2       9      15      16       8       4       9      14       4      10       9       4       3      10      16      11       7
       2       3       2       3       2       3       1       2       3       3       2       2       1       1       3      10      12       9      12      10      16      13      11      16      13      13       2       3       2      13       9
       2       1       1       3       3       2       2       1       2       1       3       2       1       2       1       5      10       6       3       2      16      11      12       4      15      10      16       2      15      11      10
       1       3       1       1       1       1       1       3       1       2       1       3       1       1       1      14       2      11      12       4       9       6       4       3       8       1       1       7       1      11       6
       1       2       2       1       2       3       1       1       1       3       2       3       1       1       2      11       0       1       4       3       3       0       7       1       5       9       1       6      11       0       9
       3       2       3       1       1       1       2       3       1       1       3       2       1       2       1       8      14       2      16       7       2      15       6      11      13      12      13       7      11       4      11
       2       1       1       2       3       2       3       2       1       2       2       3       3       3       2       6      14      15       6       3       2      12       2       2       4      15       4       6       4       6       6
       2       3       3       2       3       2       3       2       1       3       2       3       3       1       2      14       1      10       4       9       5      11       9       1       9       4       6      10      10      13       9
       1       3       2       2       3       2       1       1       1       1       3       3       1       2       2       5       2       1       1       9      10       3      16       0      13       4       8       0       6      12      10
       1       1       2       1       3       2       2       2       2       1       3       1       3       1       2       5      16       6       8       2      12      13      11       6      15      15      15       1      13      16       9
       1       1       1       3       1       2       3       2       1       3       1       1       1       1       1       7      16       5      12      12       1      13       5      11       1      14      14      16       7       5      11
       3       1       2       1       3       2       2       1       1       2       2       1       1       3       1       3      11      14       1      15      13       0       7       4       9       6       5       0      12       4       8
       2       2       1       2       3       2       3       2       1       2       3       2       1       2       1      11       5       5       0       2      13      10       6       4       5       1       2      12       4       2       9
       2       1       2       3       3       3       1       2       1       1       2       1       2       2       2       3      14      13       7       3       5      14       4       4       3       5      12      12       5       3       6
       2       1       1       3       3       3       1       3       2       2       1       1       1       2       1      10       2       7       1      12      10      13       8      16      11       2      12       3       2       0      10
       2       2       3       2       1       3       2       1       1       2       2       1       3       2       2       7      10      12      11      11       2       1       1      15      13      15      13      13      14       3       8
       1       2       2       2       1       1       1       1       1       1       3       2       3       3       1       1       3       8      13       1       9       0      15       9       7       8       0      10       7      15       6
       1       1       3       2       1       1       3       3       3       2       1       1       3       3       2       1      15       4       9      14       3       6       4      16       0       1       0       5       1       1      11
       3       2       3       1       2       3       2       1       1       1       1       3       2       1       3      11       1       0       4      13      13      12       7       8      11       0       7      13       1      15       9
       1       1       3       3       2       3       1       3       1       1       2       2       3       1       1       9      15       5      14       4      16      14      16       6       4       8       1      16       2      11      11
       1       3       2       1       2       1       3       1       2       2       2       1       3       3       2       0       6      12      16      13      12      16       9       4       5      11       7       0       9       4       8
       1       2       2       1       2       1       2       1       3       3       2       2       2       3       1      14       3       3      11      12      14       9       0       2       2       2       1       1       9      16      10
       3       3       3       2       3       1       2       3       3       3       3       2       3       1       2       0       6       6       7       1       8       2       1       9       3       3      15      11       9       2      10
       2       2       1       3       3       3       2       3       2       3       1       2       2       1       2      16      15      11       7       5      16       0       9       0       4       3       3       4      12       7       7
       3       3       3       1       1       3       2       1       3       3       1       3       1       1       3       9       3       4       8      14      14      12       3       4       0       0      12       7      11       9      10
       3       1       1       1       2       1       3       1       1       1       3       2       3       1       3      16       9       5       4      15       3       1       5       8      16      11       7       4      13       2       9
       2       1       3       1       1       1       2       1       2       3       2       1       2       2       1      12       8      13      14       8       5       3      11      15       5      16      16      15       1       7       9
       2       3       1       3       3       2       3       1       1       1       1       3       1       2       2       5       9       8       0       1       3      16       3      10       3       3       4      15       0      14       8
       2       3       3       3       3       3       3       1       2       1       2       2       2       3       2      12       8      15       2       4      14      12      13      10       8      12       4      15       3      10       8
       1       1       2       1       3       1       1       3       1       3       1       1       1       3       2       5      15       9       9       1      13       7      15       1       8       1       1       8      16      12       9
       3       3       1       1       3       3       2       1       2       3       1       1       3       2       3       2       6       1       6       9      16       7      15       9      15       7      12       6       4      14      11
       1       1       3       3       2       3       1       2       2       1       2       2       1       1       1      11      13       9       1       0       2      11      14       7      15       2       3       3      10       9       7
       2       1       1       2       1       3       1       3       3       1       1       3       3       1       1       9       8       2      15       4       1      12      15      14      15       5      15       4      10       6       7
       1       2       1       1       3       1       2       3       3       1       2       3       1       3       2       8      14      16      15       1      11       6      11       9       6      12       8       4       7       0       7
       2       2       2       2       2       3       1       1       1       2       2       3       1       2       1      10       9       1      16      15       2      15       9      13       0       0       6      12      15       7       7
       2       2       3       2       1       2       1       1       3       2       1       1       1       2       3       6       9       6       7       8       5       4       4       3       6      12       7       8       4      15       8
      84      79      56      83      67      82      62      61      69      98      82      60      73      74      84
     163     234     115     196     140     164     119     112     127     194     155     119     146     143     206
     242     362     168     418     257     242     284     254     175     396     309     215     162     333     386